
<<< setup

Version identifier: 22.1.1.0 | 2022-11-27 | 9160aff4d
Tried aggregator 1 time.
LP Presolve eliminated 99 rows and 71 columns.
Reduced LP has 2 rows, 14 columns, and 14 nonzeros.
Presolve time = 0.00 sec. (0.04 ticks)

Iteration log . . .
Iteration:     1   Dual objective     =          1446.837311
main returns 0

<<< main


<<< done

